Optimal - objective value 3272.00000000
      4 x_0_5                   1                       0
     13 x_1_3                   1                       0
     27 x_2_6                   1                       0
     36 x_3_4                   1                     130
     54 x_4_11                  1                       0
     62 x_5_8                   1                      40
     72 x_6_7                   1                     392
     77 x_7_0                   1                       0
     96 x_8_9                   1                       0
    100 x_9_1                   1                       0
    112 x_10_2                  1                       0
    131 x_11_10                 1                       0
    132 u_1                     4                       0
    133 u_2       8.99999999999999                       0
    134 u_3                     5                       0
    135 u_4       5.99999999999999                       0
    136 u_5                     1                       0
    137 u_6       9.99999999999999                       0
    138 u_7                    11                       0
    139 u_8                     2                       0
    140 u_9                     3                       0
    141 u_10      7.99999999999999                       0
    142 u_11      6.99999999999999                       0
